size = 9;
clue = [| 3, 0, 1, 6, 7, 2, 0, 8, 4
        | 0, 0, 0, 8, 0, 1, 2, 0, 7
        | 0, 8, 7, 0, 0, 0, 6, 1, 0
        | 0, 9, 2, 0, 0, 5, 3, 7, 8
        | 8, 0, 0, 7, 0, 0, 0, 0, 0
        | 0, 0, 4, 9, 2, 0, 5, 0, 0
        | 1, 0, 0, 0, 0, 6, 0, 0, 5
        | 0, 0, 6, 0, 5, 0, 8, 0, 0
        | 5, 7, 3, 2, 0, 4, 0, 0, 0
        |];
